(set-info :smt-lib-version 2.6)
(set-logic QF_S)
(set-info :source |
Generated by: Murphy Berzish, Mitja Kulczynski, Federico Mora, Florin Manea, Joel Day, Dirk Nowotka, Vijay Ganesh, Zhengyang Lu
Generated on: 2020-10-01
Description: Translated from a collection of real-world regex queries, AutomataArk, collected by Loris D’Antoni and Fang Wang: https://github.com/lorisdanto/automatark
Application: Evaluate solvers on real-world regex queries
Target solver: Z3str3RE, CVC4, OSTRICH, Z3seq, Z3str3, Z3-Trau
Publications: Berzish, M., Kulczynski, M., Mora, F., Manea, F., Day, J. D., Nowotka, D., & Ganesh, V. (2021, July). An SMT solver for regular expressions and linear arithmetic over string length. In CAV 2021.
|)
(set-info :license "https://creativecommons.org/licenses/by/4.0/")
(set-info :category "industrial")
(set-info :status sat)

(declare-const X String)
(assert (str.in_re X (re.++ (str.to_re "//b/shoe/") ((_ re.loop 3 5) (re.range "0" "9")) (str.to_re "/U\u{a}"))))
(assert (not (str.in_re X (re.++ (str.to_re "Logger") (re.+ (re.union (re.range "0" "9") (re.range "A" "Z") (re.range "a" "z") (str.to_re "_"))) (str.to_re "searchreslt") (re.range "0" "9") (str.to_re "Subject:HANDY/rssScaner\u{a}")))))
(assert (not (str.in_re X (re.union (re.++ (re.union (re.range "A" "P") (re.range "R" "U") (str.to_re "W") (str.to_re "Y") (str.to_re "Z")) (re.union (re.++ (re.range "0" "9") (re.opt (re.union (re.range "A" "H") (str.to_re "J") (str.to_re "K") (str.to_re "S") (str.to_re "T") (str.to_re "U") (str.to_re "W") (re.range "0" "9")))) (re.++ (re.union (re.range "A" "H") (re.range "K" "Y")) (re.range "0" "9") (re.union (str.to_re "A") (str.to_re "B") (str.to_re "E") (str.to_re "H") (str.to_re "M") (str.to_re "N") (str.to_re "P") (str.to_re "R") (str.to_re "V") (str.to_re "W") (str.to_re "X") (str.to_re "Y") (re.range "0" "9")))) (str.to_re " ") (re.range "0" "9") ((_ re.loop 2 2) (re.union (str.to_re "A") (str.to_re "B") (re.range "D" "H") (str.to_re "J") (str.to_re "L") (str.to_re "N") (re.range "P" "U") (re.range "W" "Z")))) (str.to_re "GIR 0AA\u{a}")))))
(assert (not (str.in_re X (re.++ (str.to_re ":") (re.union (re.++ (str.to_re "//") (re.* (re.++ (str.to_re "/") (re.* (re.union (re.++ (str.to_re "%") ((_ re.loop 2 2) (re.union (re.range "0" "9") (re.range "a" "f") (re.range "A" "F")))) (re.range "a" "z") (re.range "A" "Z") (re.range "0" "9") (str.to_re "-") (str.to_re ".") (str.to_re "_") (str.to_re "~") (str.to_re "!") (str.to_re "$") (str.to_re "&") (str.to_re "'") (str.to_re "(") (str.to_re ")") (str.to_re "*") (str.to_re "+") (str.to_re ",") (str.to_re ";") (str.to_re "=") (str.to_re ":") (str.to_re "@"))))) (re.opt (re.++ (re.* (re.union (re.++ (str.to_re "%") ((_ re.loop 2 2) (re.union (re.range "0" "9") (re.range "a" "f") (re.range "A" "F")))) (re.range "a" "z") (re.range "A" "Z") (re.range "0" "9") (str.to_re "-") (str.to_re ".") (str.to_re "_") (str.to_re "~") (str.to_re "!") (str.to_re "$") (str.to_re "&") (str.to_re "'") (str.to_re "(") (str.to_re ")") (str.to_re "*") (str.to_re "+") (str.to_re ",") (str.to_re ";") (str.to_re "=") (str.to_re ":"))) (str.to_re "@"))) (re.union (re.++ (str.to_re "[") (re.union (re.++ (str.to_re "v") (re.+ (re.union (re.range "0" "9") (re.range "a" "f") (re.range "A" "F"))) (str.to_re ".") (re.+ (re.union (re.range "a" "z") (re.range "A" "Z") (re.range "0" "9") (str.to_re "-") (str.to_re ".") (str.to_re "_") (str.to_re "~") (str.to_re "!") (str.to_re "$") (str.to_re "&") (str.to_re "'") (str.to_re "(") (str.to_re ")") (str.to_re "*") (str.to_re "+") (str.to_re ",") (str.to_re ";") (str.to_re "=") (str.to_re ":")))) (re.++ (re.union ((_ re.loop 6 6) (re.++ ((_ re.loop 1 4) (re.union (re.range "0" "9") (re.range "a" "f") (re.range "A" "F"))) (str.to_re ":"))) (re.++ (str.to_re "::") ((_ re.loop 5 5) (re.++ ((_ re.loop 1 4) (re.union (re.range "0" "9") (re.range "a" "f") (re.range "A" "F"))) (str.to_re ":")))) (re.++ (re.opt ((_ re.loop 1 4) (re.union (re.range "0" "9") (re.range "a" "f") (re.range "A" "F")))) (str.to_re "::") ((_ re.loop 4 4) (re.++ ((_ re.loop 1 4) (re.union (re.range "0" "9") (re.range "a" "f") (re.range "A" "F"))) (str.to_re ":")))) (re.++ (re.opt (re.++ (re.opt (re.++ ((_ re.loop 1 4) (re.union (re.range "0" "9") (re.range "a" "f") (re.range "A" "F"))) (str.to_re ":"))) ((_ re.loop 1 4) (re.union (re.range "0" "9") (re.range "a" "f") (re.range "A" "F"))))) (str.to_re "::") ((_ re.loop 3 3) (re.++ ((_ re.loop 1 4) (re.union (re.range "0" "9") (re.range "a" "f") (re.range "A" "F"))) (str.to_re ":")))) (re.++ (re.opt (re.++ ((_ re.loop 0 2) (re.++ ((_ re.loop 1 4) (re.union (re.range "0" "9") (re.range "a" "f") (re.range "A" "F"))) (str.to_re ":"))) ((_ re.loop 1 4) (re.union (re.range "0" "9") (re.range "a" "f") (re.range "A" "F"))))) (str.to_re "::") ((_ re.loop 2 2) (re.++ ((_ re.loop 1 4) (re.union (re.range "0" "9") (re.range "a" "f") (re.range "A" "F"))) (str.to_re ":")))) (re.++ (re.opt (re.++ ((_ re.loop 0 3) (re.++ ((_ re.loop 1 4) (re.union (re.range "0" "9") (re.range "a" "f") (re.range "A" "F"))) (str.to_re ":"))) ((_ re.loop 1 4) (re.union (re.range "0" "9") (re.range "a" "f") (re.range "A" "F"))))) (str.to_re "::") ((_ re.loop 1 4) (re.union (re.range "0" "9") (re.range "a" "f") (re.range "A" "F"))) (str.to_re ":")) (re.++ (re.opt (re.++ ((_ re.loop 0 4) (re.++ ((_ re.loop 1 4) (re.union (re.range "0" "9") (re.range "a" "f") (re.range "A" "F"))) (str.to_re ":"))) ((_ re.loop 1 4) (re.union (re.range "0" "9") (re.range "a" "f") (re.range "A" "F"))))) (str.to_re "::"))) (re.union (re.++ ((_ re.loop 1 4) (re.union (re.range "0" "9") (re.range "a" "f") (re.range "A" "F"))) (str.to_re ":") ((_ re.loop 1 4) (re.union (re.range "0" "9") (re.range "a" "f") (re.range "A" "F")))) (re.++ (re.union (re.range "0" "9") (re.++ (str.to_re "1") ((_ re.loop 2 2) (re.range "0" "9"))) (re.++ (str.to_re "2") (re.range "0" "4") (re.range "0" "9")) (re.++ (str.to_re "25") (re.range "0" "5"))) (str.to_re ".") (re.union (re.range "0" "9") (re.++ (str.to_re "1") ((_ re.loop 2 2) (re.range "0" "9"))) (re.++ (str.to_re "2") (re.range "0" "4") (re.range "0" "9")) (re.++ (str.to_re "25") (re.range "0" "5"))) (str.to_re ".") (re.union (re.range "0" "9") (re.++ (str.to_re "1") ((_ re.loop 2 2) (re.range "0" "9"))) (re.++ (str.to_re "2") (re.range "0" "4") (re.range "0" "9")) (re.++ (str.to_re "25") (re.range "0" "5"))) (str.to_re ".") (re.union (re.range "0" "9") (re.++ (str.to_re "1") ((_ re.loop 2 2) (re.range "0" "9"))) (re.++ (str.to_re "2") (re.range "0" "4") (re.range "0" "9")) (re.++ (str.to_re "25") (re.range "0" "5")))))) (re.++ (re.opt (re.++ ((_ re.loop 0 5) (re.++ ((_ re.loop 1 4) (re.union (re.range "0" "9") (re.range "a" "f") (re.range "A" "F"))) (str.to_re ":"))) ((_ re.loop 1 4) (re.union (re.range "0" "9") (re.range "a" "f") (re.range "A" "F"))))) (str.to_re "::") ((_ re.loop 1 4) (re.union (re.range "0" "9") (re.range "a" "f") (re.range "A" "F")))) (re.++ (re.opt (re.++ ((_ re.loop 0 5) (re.++ ((_ re.loop 1 4) (re.union (re.range "0" "9") (re.range "a" "f") (re.range "A" "F"))) (str.to_re ":"))) ((_ re.loop 1 4) (re.union (re.range "0" "9") (re.range "a" "f") (re.range "A" "F"))))) (str.to_re "::"))) (str.to_re "]")) (re.++ (re.union (re.range "0" "9") (re.++ (str.to_re "1") ((_ re.loop 2 2) (re.range "0" "9"))) (re.++ (str.to_re "2") (re.range "0" "4") (re.range "0" "9")) (re.++ (str.to_re "25") (re.range "0" "5"))) (str.to_re ".") (re.union (re.range "0" "9") (re.++ (str.to_re "1") ((_ re.loop 2 2) (re.range "0" "9"))) (re.++ (str.to_re "2") (re.range "0" "4") (re.range "0" "9")) (re.++ (str.to_re "25") (re.range "0" "5"))) (str.to_re ".") (re.union (re.range "0" "9") (re.++ (str.to_re "1") ((_ re.loop 2 2) (re.range "0" "9"))) (re.++ (str.to_re "2") (re.range "0" "4") (re.range "0" "9")) (re.++ (str.to_re "25") (re.range "0" "5"))) (str.to_re ".") (re.union (re.range "0" "9") (re.++ (str.to_re "1") ((_ re.loop 2 2) (re.range "0" "9"))) (re.++ (str.to_re "2") (re.range "0" "4") (re.range "0" "9")) (re.++ (str.to_re "25") (re.range "0" "5")))) (re.* (re.union (re.++ (str.to_re "%") ((_ re.loop 2 2) (re.union (re.range "0" "9") (re.range "a" "f") (re.range "A" "F")))) (re.range "a" "z") (re.range "A" "Z") (re.range "0" "9") (str.to_re "-") (str.to_re ".") (str.to_re "_") (str.to_re "~") (str.to_re "!") (str.to_re "$") (str.to_re "&") (str.to_re "'") (str.to_re "(") (str.to_re ")") (str.to_re "*") (str.to_re "+") (str.to_re ",") (str.to_re ";") (str.to_re "=")))) (re.opt (re.++ (str.to_re ":") (re.* (re.range "0" "9"))))) (re.++ (re.opt (str.to_re "/")) (re.opt (re.++ (re.+ (re.union (re.++ (str.to_re "%") ((_ re.loop 2 2) (re.union (re.range "0" "9") (re.range "a" "f") (re.range "A" "F")))) (re.range "a" "z") (re.range "A" "Z") (re.range "0" "9") (str.to_re "-") (str.to_re ".") (str.to_re "_") (str.to_re "~") (str.to_re "!") (str.to_re "$") (str.to_re "&") (str.to_re "'") (str.to_re "(") (str.to_re ")") (str.to_re "*") (str.to_re "+") (str.to_re ",") (str.to_re ";") (str.to_re "=") (str.to_re ":") (str.to_re "@"))) (re.* (re.++ (str.to_re "/") (re.* (re.union (re.++ (str.to_re "%") ((_ re.loop 2 2) (re.union (re.range "0" "9") (re.range "a" "f") (re.range "A" "F")))) (re.range "a" "z") (re.range "A" "Z") (re.range "0" "9") (str.to_re "-") (str.to_re ".") (str.to_re "_") (str.to_re "~") (str.to_re "!") (str.to_re "$") (str.to_re "&") (str.to_re "'") (str.to_re "(") (str.to_re ")") (str.to_re "*") (str.to_re "+") (str.to_re ",") (str.to_re ";") (str.to_re "=") (str.to_re ":") (str.to_re "@"))))))))) (re.opt (re.++ (str.to_re "?") (re.* (re.union (re.++ (str.to_re "%") ((_ re.loop 2 2) (re.union (re.range "0" "9") (re.range "a" "f") (re.range "A" "F")))) (re.range "a" "z") (re.range "A" "Z") (re.range "0" "9") (str.to_re "-") (str.to_re ".") (str.to_re "_") (str.to_re "~") (str.to_re "!") (str.to_re "$") (str.to_re "&") (str.to_re "'") (str.to_re "(") (str.to_re ")") (str.to_re "*") (str.to_re "+") (str.to_re ",") (str.to_re ";") (str.to_re "=") (str.to_re ":") (str.to_re "@") (str.to_re "/") (str.to_re "?"))))) (re.opt (re.++ (str.to_re "#") (re.* (re.union (re.++ (str.to_re "%") ((_ re.loop 2 2) (re.union (re.range "0" "9") (re.range "a" "f") (re.range "A" "F")))) (re.range "a" "z") (re.range "A" "Z") (re.range "0" "9") (str.to_re "-") (str.to_re ".") (str.to_re "_") (str.to_re "~") (str.to_re "!") (str.to_re "$") (str.to_re "&") (str.to_re "'") (str.to_re "(") (str.to_re ")") (str.to_re "*") (str.to_re "+") (str.to_re ",") (str.to_re ";") (str.to_re "=") (str.to_re ":") (str.to_re "@") (str.to_re "/") (str.to_re "?"))))) (str.to_re "\u{a}") (re.union (re.range "a" "z") (re.range "A" "Z")) (re.* (re.union (re.range "a" "z") (re.range "A" "Z") (re.range "0" "9") (re.range "+" ".")))))))
(assert (not (str.in_re X (re.++ (str.to_re "toolbarplace.com") (re.* re.allchar) (str.to_re "TencentTraveler") (re.+ (re.range "0" "9")) (str.to_re "/newsurfer4/") (re.* re.allchar) (str.to_re "BysooTBADdcww.dmcast.com\u{a}")))))
(check-sat)

(exit)
